p td 140 72
1 50
1 91
6 26
8 54
10 129
11 73
11 102
12 95
14 44
15 96
15 130
16 19
16 48
18 139
22 26
22 122
23 32
23 55
24 47
26 138
27 81
29 55
29 87
30 67
30 130
32 90
32 121
34 36
34 131
34 135
35 49
35 88
36 123
36 131
40 104
41 42
43 80
43 88
46 132
48 113
49 51
50 123
51 77
53 108
54 100
55 86
58 124
62 63
62 66
62 92
68 92
68 137
71 132
72 120
72 132
76 94
78 103
79 102
80 100
80 113
82 103
90 122
94 123
97 120
97 130
97 134
99 138
101 130
115 130
116 124
126 128
127 128
